Minimize
   z: 131 quantity_e_0_0 + 100 quantity_e_1_0 + 70 quantity_e_2_0 + 62 quantity_e_3_0 + 97 quantity_e_4_0 + 45 quantity_e_5_0 + 48 quantity_e_6_0 + 147 quantity_e_7_0 + 113 quantity_e_8_0 + 92 quantity_e_9_0 + 123 quantity_e_10_0 + 161 quantity_e_11_0 + 135 quantity_e_12_0 + 184 quantity_e_13_0 + 33 quantity_e_14_0 + 33 quantity_e_15_0 + 127 quantity_e_16_0 + 137 quantity_e_17_0 + 172 quantity_e_18_0 + 115 quantity_e_19_0 + 149 quantity_e_20_0 + 138 quantity_e_21_0 + 55 quantity_e_22_0 + 176 quantity_e_23_0 + 69 quantity_e_24_0 + 196 quantity_e_25_0 + 81 quantity_e_26_0 + 99 quantity_e_27_0 + 51 quantity_e_28_0 + 196 quantity_e_29_0 + 129 quantity_e_30_0 + 38 quantity_e_31_0 + 206 quantity_e_32_0 + 73 quantity_e_33_0 - 2 quantity_e_34_0 + 73 quantity_e_35_0 + 214 quantity_e_36_0 + 130 quantity_e_37_0 + 98 quantity_e_38_0 + 101 quantity_e_39_0 + 56 quantity_e_40_0 - 40 quantity_e_41_0 + 6 quantity_e_42_0 + 0 quantity_e_43_0 + 142 quantity_e_44_0 + 96 quantity_e_45_0 + 137 quantity_e_46_0 + 53 quantity_e_47_0 - 21 quantity_e_48_0 + 62 quantity_e_49_0 + 111 quantity_e_50_0 + 117 quantity_e_51_0 + 185 quantity_e_52_0 + 197 quantity_e_53_0 + 19 quantity_e_54_0 + 148 quantity_e_55_0 + 192 quantity_e_56_0 + 103 quantity_e_57_0 + 178 quantity_e_58_0 + 98 quantity_e_59_0
Subject to
   contraite_9_0: quantity_e_41_0 + quantity_e_43_0 + quantity_e_45_0 - quantity_e_40_0 - quantity_e_42_0 - quantity_e_44_0 = 1001
   contraite_14_0: quantity_e_12_0 + quantity_e_40_0 + quantity_e_42_0 - quantity_e_13_0 - quantity_e_41_0 - quantity_e_43_0 = 1222
   contraite_8_0: quantity_e_10_0 + quantity_e_39_0 - quantity_e_11_0 - quantity_e_38_0 = 368
   contraite_16_0: quantity_e_56_0 + quantity_e_58_0 - quantity_e_57_0 - quantity_e_59_0 = 281
   contraite_12_0: quantity_e_38_0 + quantity_e_48_0 - quantity_e_39_0 - quantity_e_49_0 = 1908
   contraite_4_0: quantity_e_24_0 - quantity_e_25_0 <= 2043
   contraite_10_0: quantity_e_3_0 + quantity_e_21_0 + quantity_e_25_0 - quantity_e_2_0 - quantity_e_20_0 - quantity_e_24_0 <= 617
   contraite_0_0: quantity_e_0_0 + quantity_e_2_0 + quantity_e_4_0 - quantity_e_1_0 - quantity_e_3_0 - quantity_e_5_0 <= 854
   contraite_3_0: quantity_e_20_0 + quantity_e_22_0 - quantity_e_21_0 - quantity_e_23_0 <= 921
   contraite_1_0: quantity_e_6_0 + quantity_e_8_0 - quantity_e_7_0 - quantity_e_9_0 <= 349
   contraite_2_0: quantity_e_11_0 + quantity_e_13_0 + quantity_e_15_0 + quantity_e_17_0 + quantity_e_19_0 - quantity_e_10_0 - quantity_e_12_0 - quantity_e_14_0 - quantity_e_16_0 - quantity_e_18_0 = 0
   contraite_5_0: quantity_e_18_0 + quantity_e_27_0 + quantity_e_29_0 + quantity_e_31_0 - quantity_e_19_0 - quantity_e_26_0 - quantity_e_28_0 - quantity_e_30_0 = 0
   contraite_6_0: quantity_e_33_0 + quantity_e_35_0 - quantity_e_32_0 - quantity_e_34_0 = 0
   contraite_7_0: quantity_e_30_0 + quantity_e_37_0 - quantity_e_31_0 - quantity_e_36_0 = 0
   contraite_11_0: quantity_e_47_0 + quantity_e_49_0 + quantity_e_51_0 - quantity_e_46_0 - quantity_e_48_0 - quantity_e_50_0 = 0
   contraite_13_0: quantity_e_16_0 + quantity_e_34_0 + quantity_e_46_0 + quantity_e_53_0 + quantity_e_55_0 - quantity_e_17_0 - quantity_e_35_0 - quantity_e_47_0 - quantity_e_52_0 - quantity_e_54_0 = 0
   contraite_15_0: quantity_e_14_0 + quantity_e_28_0 + quantity_e_32_0 + quantity_e_44_0 + quantity_e_50_0 + quantity_e_57_0 + quantity_e_59_0 - quantity_e_15_0 - quantity_e_29_0 - quantity_e_33_0 - quantity_e_45_0 - quantity_e_51_0 - quantity_e_56_0 - quantity_e_58_0 = 0
   contraite_17_0: quantity_e_4_0 + quantity_e_36_0 - quantity_e_5_0 - quantity_e_37_0 = 0
   contraite_18_0: quantity_e_0_0 + quantity_e_6_0 + quantity_e_8_0 + quantity_e_52_0 - quantity_e_1_0 - quantity_e_7_0 - quantity_e_9_0 - quantity_e_53_0 = 0
   contraite_19_0: quantity_e_22_0 + quantity_e_26_0 + quantity_e_54_0 - quantity_e_23_0 - quantity_e_27_0 - quantity_e_55_0 = 0
Bounds
   quantity_e_0_0 >= 0
   quantity_e_1_0 >= 0
   quantity_e_2_0 >= 0
   quantity_e_3_0 >= 0
   quantity_e_4_0 >= 0
   quantity_e_5_0 >= 0
   quantity_e_6_0 >= 0
   quantity_e_7_0 >= 0
   quantity_e_8_0 >= 0
   quantity_e_9_0 >= 0
   quantity_e_10_0 >= 0
   quantity_e_11_0 >= 0
   quantity_e_12_0 >= 0
   quantity_e_13_0 >= 0
   quantity_e_14_0 >= 0
   quantity_e_15_0 >= 0
   quantity_e_16_0 >= 0
   quantity_e_17_0 >= 0
   quantity_e_18_0 >= 0
   quantity_e_19_0 >= 0
   quantity_e_20_0 >= 0
   quantity_e_21_0 >= 0
   quantity_e_22_0 >= 0
   quantity_e_23_0 >= 0
   quantity_e_24_0 >= 0
   quantity_e_25_0 >= 0
   quantity_e_26_0 >= 0
   quantity_e_27_0 >= 0
   quantity_e_28_0 >= 0
   quantity_e_29_0 >= 0
   quantity_e_30_0 >= 0
   quantity_e_31_0 >= 0
   quantity_e_32_0 >= 0
   quantity_e_33_0 >= 0
   quantity_e_34_0 >= 0
   quantity_e_35_0 >= 0
   quantity_e_36_0 >= 0
   quantity_e_37_0 >= 0
   quantity_e_38_0 >= 0
   quantity_e_39_0 >= 0
   quantity_e_40_0 >= 0
   quantity_e_41_0 >= 0
   quantity_e_42_0 >= 0
   quantity_e_43_0 >= 0
   quantity_e_44_0 >= 0
   quantity_e_45_0 >= 0
   quantity_e_46_0 >= 0
   quantity_e_47_0 >= 0
   quantity_e_48_0 >= 0
   quantity_e_49_0 >= 0
   quantity_e_50_0 >= 0
   quantity_e_51_0 >= 0
   quantity_e_52_0 >= 0
   quantity_e_53_0 >= 0
   quantity_e_54_0 >= 0
   quantity_e_55_0 >= 0
   quantity_e_56_0 >= 0
   quantity_e_57_0 >= 0
   quantity_e_58_0 >= 0
   quantity_e_59_0 >= 0
Integer
   quantity_e_0_0
   quantity_e_1_0
   quantity_e_2_0
   quantity_e_3_0
   quantity_e_4_0
   quantity_e_5_0
   quantity_e_6_0
   quantity_e_7_0
   quantity_e_8_0
   quantity_e_9_0
   quantity_e_10_0
   quantity_e_11_0
   quantity_e_12_0
   quantity_e_13_0
   quantity_e_14_0
   quantity_e_15_0
   quantity_e_16_0
   quantity_e_17_0
   quantity_e_18_0
   quantity_e_19_0
   quantity_e_20_0
   quantity_e_21_0
   quantity_e_22_0
   quantity_e_23_0
   quantity_e_24_0
   quantity_e_25_0
   quantity_e_26_0
   quantity_e_27_0
   quantity_e_28_0
   quantity_e_29_0
   quantity_e_30_0
   quantity_e_31_0
   quantity_e_32_0
   quantity_e_33_0
   quantity_e_34_0
   quantity_e_35_0
   quantity_e_36_0
   quantity_e_37_0
   quantity_e_38_0
   quantity_e_39_0
   quantity_e_40_0
   quantity_e_41_0
   quantity_e_42_0
   quantity_e_43_0
   quantity_e_44_0
   quantity_e_45_0
   quantity_e_46_0
   quantity_e_47_0
   quantity_e_48_0
   quantity_e_49_0
   quantity_e_50_0
   quantity_e_51_0
   quantity_e_52_0
   quantity_e_53_0
   quantity_e_54_0
   quantity_e_55_0
   quantity_e_56_0
   quantity_e_57_0
   quantity_e_58_0
   quantity_e_59_0
End